unknown
(model
; cardinality of BoundSet is 5
(declare-sort BoundSet 0)
; rep: @uc_BoundSet_0
; rep: @uc_BoundSet_1
; rep: @uc_BoundSet_2
; rep: @uc_BoundSet_3
; rep: @uc_BoundSet_4
; cardinality of UnboundSet is 1
(declare-sort UnboundSet 0)
(declare-fun groundTerm_6 () UnboundSet)
(define-fun IsRidingDown ((BOUND_VARIABLE_460 BoundSet) (BOUND_VARIABLE_461 BoundSet)) Bool true)
(define-fun IsBetween ((BOUND_VARIABLE_460 BoundSet) (BOUND_VARIABLE_461 BoundSet)) Bool true)
(define-fun Exists ((BOUND_VARIABLE_470 BoundSet)) Bool false)
)
unsat
(error "Cannot get model unless immediately preceded by SAT/NOT_ENTAILED or UNKNOWN response.")
